(set-info :smt-lib-version 2.6)
(set-logic LRA)
(set-info :source |
   Monniaux, David; Quantifier Elimination by Lazy Model Enumeration, CAV 2010
|)
(set-info :category "random")
; ./Mjollnir_examples/B4/formula_156.m
(set-info :status unsat)
(assert
 (exists ((|v11:0| Real) )(exists ((|v10:1| Real) )(exists ((|v9:2| Real) )(exists ((|v8:3| Real) )(forall ((|v7:4| Real) )(forall ((|v6:5| Real) )(forall ((|v5:6| Real) )(forall ((|v4:7| Real) )(exists ((|v3:8| Real) )(exists ((|v2:9| Real) )(exists ((|v1:10| Real) )(exists ((|v0:11| Real) )(let ((?x94 12))
(let ((?x24 13))
(let ((?x353 (* ?x24 |v6:5|)))
(let ((?x140 5))
(let ((?x204 (* ?x140 |v8:3|)))
(let ((?x607 (+ (+ (+ (* 0 |v4:7|) (* 10 |v5:6|)) ?x204) ?x353)))
(let ((?x123 (- 11)))
(let ((?x106 7))
(let ((?x107 (* ?x106 |v6:5|)))
(let ((?x293 (- 14)))
(let ((?x451 (* ?x293 |v10:1|)))
(let (($x602 (<= (+ (+ (+ (* ?x123 |v7:4|) (* (- 18) |v3:8|)) ?x451) ?x107) ?x123)))
(let ((?x79 10))
(let ((?x14 (- 5)))
(let ((?x467 (* ?x14 |v11:0|)))
(let ((?x595 (+ (+ (+ (* (- 15) |v4:7|) (* ?x123 |v3:8|)) ?x467) (* ?x140 |v1:10|))))
(let ((?x73 (- 8)))
(let ((?x588 (+ (+ (* (- 12) |v11:0|) (* 20 |v5:6|)) (* (- 1) |v2:9|))))
(let (($x610 (or (and (<= (+ ?x588 (* ?x24 |v9:2|)) ?x73) (<= ?x595 ?x79)) (and $x602 (<= ?x607 ?x94)))))
(let ((?x580 (+ (+ (+ (* ?x79 |v7:4|) (* (- 3) |v3:8|)) (* ?x73 |v11:0|)) (* (- 3) |v8:3|))))
(let ((?x113 6))
(let ((?x41 (- 7)))
(let ((?x48 (* ?x41 |v3:8|)))
(let ((?x574 (+ (+ (+ (* ?x123 |v3:8|) (* 9 |v5:6|)) ?x48) (* 2 |v10:1|))))
(let ((?x55 (- 10)))
(let ((?x233 11))
(let ((?x268 (* ?x233 |v6:5|)))
(let ((?x566 (+ (+ (+ (* 14 |v8:3|) (* ?x94 |v8:3|)) ?x268) (* ?x293 |v3:8|))))
(let ((?x168 3))
(let ((?x120 (- 17)))
(let ((?x328 (* ?x120 |v8:3|)))
(let ((?x560 (+ (+ (+ (* (- 12) |v7:4|) (* 14 |v10:1|)) |v0:11|) ?x328)))
(let (($x583 (and (and (<= ?x560 ?x168) (<= ?x566 ?x55)) (and (<= ?x574 ?x113) (<= ?x580 1)))))
(let ((?x194 19))
(let ((?x551 (+ (+ (+ (* 14 |v11:0|) (* ?x113 |v2:9|)) (* ?x123 |v4:7|)) (* ?x79 |v6:5|))))
(let ((?x63 (- 16)))
(let ((?x543 (+ (+ (+ (* ?x41 |v9:2|) (* ?x140 |v6:5|)) (* (- 13) |v7:4|)) (* 9 |v9:2|))))
(let ((?x520 14))
(let ((?x91 (- 13)))
(let ((?x291 (* ?x91 |v7:4|)))
(let (($x537 (<= (+ (+ (+ (* 9 |v3:8|) (* ?x293 |v5:6|)) ?x291) |v7:4|) ?x520)))
(let ((?x70 (- 12)))
(let ((?x530 (+ (+ (+ (* 4 |v5:6|) (* ?x140 |v7:4|)) (* ?x14 |v3:8|)) (* 15 |v9:2|))))
(let ((?x59 (- 9)))
(let ((?x522 (+ (+ (+ (* ?x63 |v0:11|) (* ?x106 |v3:8|)) (* 4 |v5:6|)) (* ?x520 |v4:7|))))
(let ((?x19 (- 20)))
(let ((?x386 (* ?x19 |v8:3|)))
(let ((?x46 18))
(let ((?x343 (* ?x46 |v7:4|)))
(let ((?x513 (+ (+ (+ (* 16 |v6:5|) (* 0 |v5:6|)) ?x343) ?x386)))
(let ((?x38 (- 19)))
(let ((?x506 (+ (+ (+ (* ?x168 |v6:5|) (* ?x140 |v7:4|)) (* ?x38 |v8:3|)) (* 16 |v9:2|))))
(let ((?x498 (+ (+ (+ (* ?x24 |v4:7|) (* (- 2) |v10:1|)) (* ?x91 |v4:7|)) (* (- 18) |v2:9|))))
(let (($x525 (and (and (<= ?x498 ?x168) (<= ?x506 ?x38)) (and (<= ?x513 ?x168) (<= ?x522 ?x59)))))
(let (($x555 (or $x525 (and (and (<= ?x530 ?x70) $x537) (and (<= ?x543 ?x63) (<= ?x551 ?x194))))))
(let ((?x487 (+ (+ (+ (* ?x41 |v9:2|) (* 9 |v10:1|)) (* ?x46 |v11:0|)) (* ?x63 |v11:0|))))
(let ((?x480 (+ (+ (+ (* (- 3) |v0:11|) (* ?x123 |v0:11|)) (* ?x79 |v0:11|)) (* ?x41 |v10:1|))))
(let ((?x109 8))
(let ((?x249 (- 1)))
(let ((?x383 (* ?x249 |v10:1|)))
(let ((?x81 (- 15)))
(let ((?x209 (* ?x81 |v8:3|)))
(let (($x473 (<= (+ (+ (+ (* ?x63 |v4:7|) (* 4 |v11:0|)) ?x209) ?x383) ?x109)))
(let ((?x468 (+ (+ (+ (* ?x233 |v10:1|) (* ?x106 |v4:7|)) (* (- 2) |v8:3|)) ?x467)))
(let ((?x459 (+ (+ (+ (* ?x59 |v10:1|) (* ?x94 |v4:7|)) (* ?x91 |v1:10|)) (* ?x55 |v2:9|))))
(let ((?x102 (- 2)))
(let ((?x450 (+ (+ (* 4 |v1:10|) (* ?x24 |v4:7|)) (* 4 |v4:7|))))
(let ((?x220 16))
(let ((?x443 (+ (+ (+ (* ?x249 |v4:7|) (* ?x94 |v3:8|)) (* ?x249 |v9:2|)) (* ?x109 |v9:2|))))
(let ((?x435 (+ (+ (+ (* 15 |v5:6|) (* ?x194 |v10:1|)) |v8:3|) (* ?x46 |v9:2|))))
(let (($x462 (and (and (<= ?x435 ?x14) (<= ?x443 ?x220)) (and (<= (+ ?x450 ?x451) ?x102) (<= ?x459 ?x94)))))
(let (($x491 (and $x462 (and (and (<= ?x468 ?x123) $x473) (and (<= ?x480 ?x41) (<= ?x487 ?x120))))))
(let (($x426 (<= (+ (+ (+ ?x209 (* ?x120 |v3:8|)) (* ?x24 |v3:8|)) (* ?x109 |v5:6|)) ?x41)))
(let ((?x420 (+ (+ (+ (* ?x63 |v6:5|) (* (- 4) |v7:4|)) (* ?x63 |v2:9|)) (* ?x38 |v1:10|))))
(let ((?x411 (+ (+ (+ (* ?x63 |v7:4|) (* 4 |v11:0|)) (* ?x41 |v1:10|)) (* ?x38 |v5:6|))))
(let ((?x403 (+ (+ (+ |v6:5| (* (- 3) |v0:11|)) (* ?x19 |v7:4|)) (* 17 |v4:7|))))
(let ((?x162 20))
(let ((?x394 (+ (+ (+ ?x386 (* 17 |v3:8|)) (* ?x79 |v11:0|)) (* ?x293 |v8:3|))))
(let ((?x384 (+ (+ (+ (* (- 6) |v1:10|) (* ?x70 |v0:11|)) (* ?x113 |v7:4|)) ?x383)))
(let ((?x376 (+ (+ (+ (* ?x24 |v2:9|) (* ?x14 |v10:1|)) (* ?x102 |v9:2|)) (* ?x168 |v9:2|))))
(let ((?x345 (* ?x102 |v7:4|)))
(let (($x369 (<= (+ (+ (+ (* ?x106 |v9:2|) (* ?x79 |v2:9|)) (* ?x63 |v4:7|)) ?x345) ?x55)))
(let (($x429 (and (and (and $x369 (<= ?x376 ?x41)) (and (<= ?x384 ?x123) (<= ?x394 ?x162))) (and (and (<= ?x403 ?x102) (<= ?x411 ?x106)) (or (<= ?x420 ?x194) $x426)))))
(let (($x357 (<= (+ (+ (+ (* ?x102 |v2:9|) (* ?x14 |v8:3|)) ?x353) (* ?x38 |v7:4|)) ?x38)))
(let ((?x147 9))
(let (($x349 (<= (+ (+ (+ ?x343 (* (- 18) |v5:6|)) ?x345) (* ?x59 |v1:10|)) ?x147)))
(let ((?x313 (* ?x220 |v4:7|)))
(let ((?x340 (+ (+ (+ (* 15 |v0:11|) (* ?x168 |v8:3|)) (* ?x73 |v8:3|)) ?x313)))
(let (($x335 (<= (+ (+ (+ ?x328 (* ?x109 |v5:6|)) (* ?x249 |v1:10|)) (* ?x140 |v10:1|)) ?x91)))
(let ((?x324 (+ (+ (+ (* (- 18) |v6:5|) (* ?x140 |v9:2|)) (* ?x70 |v3:8|)) (* ?x168 |v1:10|))))
(let ((?x317 (+ (+ (+ (* (- 3) |v10:1|) ?x313) (* ?x41 |v0:11|)) (* ?x102 |v5:6|))))
(let ((?x229 0))
(let ((?x230 (* ?x229 |v1:10|)))
(let (($x311 (<= (+ (+ (+ (* ?x109 |v10:1|) (* (- 3) |v10:1|)) |v11:0|) ?x230) ?x140)))
(let ((?x302 (+ (+ (* (- 6) |v10:1|) (* (- 18) |v1:10|)) (* ?x19 |v9:2|))))
(let (($x327 (and (and (<= (+ ?x302 (* ?x41 |v7:4|)) ?x102) $x311) (and (<= ?x317 ?x73) (<= ?x324 ?x113)))))
(let (($x294 (<= (+ (+ (+ (* ?x41 |v5:6|) (* ?x233 |v8:3|)) (* ?x233 |v7:4|)) ?x291) ?x293)))
(let ((?x150 (- 6)))
(let ((?x282 (+ (+ (* ?x81 |v5:6|) (* 2 |v3:8|)) (* 2 |v8:3|))))
(let ((?x275 (+ (+ (* ?x38 |v0:11|) (* (- 18) |v5:6|)) (* 2 |v11:0|))))
(let (($x270 (<= (+ (+ (+ (* ?x162 |v8:3|) (* ?x38 |v10:1|)) (* ?x73 |v5:6|)) ?x268) ?x140)))
(let (($x296 (and (and $x270 (<= (+ ?x275 ?x230) ?x220)) (and (<= (+ ?x282 (* ?x233 |v1:10|)) ?x150) $x294))))
(let ((?x198 4))
(let ((?x27 (- 4)))
(let ((?x126 (* ?x27 |v10:1|)))
(let (($x262 (<= (+ (+ (+ (* ?x229 |v10:1|) (* ?x27 |v9:2|)) (* ?x140 |v2:9|)) ?x126) ?x198)))
(let ((?x254 (* ?x233 |v10:1|)))
(let ((?x255 (+ (+ (+ (* 15 |v2:9|) (* ?x249 |v7:4|)) (* ?x81 |v4:7|)) ?x254)))
(let ((?x244 (+ (+ (+ (* ?x194 |v6:5|) (* (- 3) |v2:9|)) (* ?x102 |v1:10|)) (* ?x102 |v0:11|))))
(let (($x238 (<= (+ (+ (+ (* ?x19 |v2:9|) ?x230) (* ?x233 |v5:6|)) (* ?x102 |v3:8|)) ?x102)))
(let (($x361 (and (and (and (or $x238 (<= ?x244 ?x19)) (and (<= ?x255 ?x14) $x262)) $x296) (and $x327 (and (and $x335 (<= ?x340 ?x59)) (and $x349 $x357))))))
(let ((?x217 (* ?x162 |v8:3|)))
(let ((?x222 (+ (+ (+ (* (- 3) |v3:8|) (* 15 |v0:11|)) ?x217) (* ?x220 |v5:6|))))
(let (($x224 (and (<= (+ (+ (+ ?x204 (* ?x19 |v11:0|)) (* ?x38 |v10:1|)) ?x209) ?x120) (<= ?x222 ?x70))))
(let ((?x200 (+ (+ (+ (* 2 |v4:7|) (* ?x73 |v7:4|)) (* ?x194 |v1:10|)) (* ?x198 |v0:11|))))
(let ((?x186 (* ?x106 |v3:8|)))
(let ((?x187 (+ (+ (+ (* ?x147 |v1:10|) (* ?x19 |v2:9|)) (* 15 |v4:7|)) ?x186)))
(let ((?x177 (+ (+ (+ (* 15 |v6:5|) (* ?x70 |v2:9|)) (* ?x106 |v1:10|)) (* 15 |v3:8|))))
(let ((?x170 (+ (+ (+ (* 2 |v1:10|) (* ?x162 |v9:2|)) (* ?x102 |v1:10|)) (* ?x168 |v7:4|))))
(let ((?x34 (- 18)))
(let ((?x155 (* ?x34 |v6:5|)))
(let (($x157 (<= (+ (+ (+ (* ?x147 |v2:9|) (* ?x150 |v1:10|)) (* ?x102 |v1:10|)) ?x155) ?x79)))
(let ((?x144 (+ (+ (+ (* ?x46 |v11:0|) (* 15 |v6:5|)) (* ?x140 |v2:9|)) (* ?x106 |v2:9|))))
(let (($x226 (and (and (and (<= ?x144 ?x27) $x157) (and (<= ?x170 ?x162) (<= ?x177 ?x140))) (and (and (<= ?x187 ?x147) (<= ?x200 1)) $x224))))
(let (($x130 (<= (+ (+ (+ (* ?x120 |v3:8|) (* ?x123 |v5:6|)) ?x126) (* ?x120 |v1:10|)) ?x55)))
(let (($x118 (<= (+ (+ (+ ?x107 (* ?x109 |v1:10|)) (* ?x113 |v5:6|)) (* ?x19 |v6:5|)) ?x46)))
(let ((?x100 (* ?x73 |v11:0|)))
(let (($x103 (<= (+ (+ (+ (* ?x91 |v1:10|) (* ?x94 |v8:3|)) (* ?x41 |v0:11|)) ?x100) ?x102)))
(let (($x88 (<= (+ (+ (+ (* ?x79 |v4:7|) (* ?x81 |v5:6|)) |v1:10|) (* ?x27 |v3:8|)) ?x81)))
(let ((?x72 (+ (+ (+ (* ?x59 |v2:9|) (* ?x63 |v10:1|)) (* ?x41 |v6:5|)) (* ?x70 |v8:3|))))
(let (($x56 (<= (+ (+ (+ (* ?x46 |v2:9|) ?x48) (* ?x27 |v5:6|)) (* ?x41 |v5:6|)) ?x55)))
(let ((?x40 (+ (+ (+ (* 2 |v2:9|) (* ?x19 |v3:8|)) (* ?x34 |v3:8|)) (* ?x38 |v4:7|))))
(let ((?x26 (+ (+ (+ (* 2 |v6:5|) (* ?x14 |v4:7|)) (* ?x19 |v3:8|)) (* ?x24 |v0:11|))))
(let (($x133 (or (or (and (<= ?x26 ?x27) (<= ?x40 ?x41)) (and $x56 (<= ?x72 ?x73))) (and (and $x88 $x103) (and $x118 $x130)))))
(and (and (and $x133 $x226) $x361) (or (and $x429 $x491) (and $x555 (and $x583 $x610)))))))))))))))))))))))))))))))))))))))))))))))))))))))))))))))))))))))))))))))))))))))))))))))))))))))))))))))))))))))))))))))))))))))))))
)
)
)
)
)
)
)
)
)
)
)
)
(check-sat)
(exit)

